p cnf 45 555
1 6 11 16 21 26 31 36 41 0
2 7 12 17 22 27 32 37 42 0
3 8 13 18 23 28 33 38 43 0
4 9 14 19 24 29 34 39 44 0
5 10 15 20 25 30 35 40 45 0
-1 -7 0
-1 -8 0
-1 -9 0
-1 -10 0
-2 -8 0
-2 -9 0
-2 -10 0
-3 -9 0
-3 -10 0
-4 -10 0
-1 -17 0
-1 -18 0
-1 -19 0
-1 -20 0
-2 -18 0
-2 -19 0
-2 -20 0
-3 -19 0
-3 -20 0
-4 -20 0
-1 -22 0
-1 -23 0
-1 -24 0
-1 -25 0
-2 -23 0
-2 -24 0
-2 -25 0
-3 -24 0
-3 -25 0
-4 -25 0
-1 -27 0
-1 -28 0
-1 -29 0
-1 -30 0
-2 -28 0
-2 -29 0
-2 -30 0
-3 -29 0
-3 -30 0
-4 -30 0
-1 -37 0
-1 -38 0
-1 -39 0
-1 -40 0
-2 -38 0
-2 -39 0
-2 -40 0
-3 -39 0
-3 -40 0
-4 -40 0
-1 -42 0
-1 -43 0
-1 -44 0
-1 -45 0
-2 -43 0
-2 -44 0
-2 -45 0
-3 -44 0
-3 -45 0
-4 -45 0
-6 -2 0
-6 -3 0
-6 -4 0
-6 -5 0
-7 -3 0
-7 -4 0
-7 -5 0
-8 -4 0
-8 -5 0
-9 -5 0
-6 -12 0
-6 -13 0
-6 -14 0
-6 -15 0
-7 -13 0
-7 -14 0
-7 -15 0
-8 -14 0
-8 -15 0
-9 -15 0
-6 -27 0
-6 -28 0
-6 -29 0
-6 -30 0
-7 -28 0
-7 -29 0
-7 -30 0
-8 -29 0
-8 -30 0
-9 -30 0
-6 -32 0
-6 -33 0
-6 -34 0
-6 -35 0
-7 -33 0
-7 -34 0
-7 -35 0
-8 -34 0
-8 -35 0
-9 -35 0
-11 -7 0
-11 -8 0
-11 -9 0
-11 -10 0
-12 -8 0
-12 -9 0
-12 -10 0
-13 -9 0
-13 -10 0
-14 -10 0
-11 -27 0
-11 -28 0
-11 -29 0
-11 -30 0
-12 -28 0
-12 -29 0
-12 -30 0
-13 -29 0
-13 -30 0
-14 -30 0
-11 -32 0
-11 -33 0
-11 -34 0
-11 -35 0
-12 -33 0
-12 -34 0
-12 -35 0
-13 -34 0
-13 -35 0
-14 -35 0
-16 -2 0
-16 -3 0
-16 -4 0
-16 -5 0
-17 -3 0
-17 -4 0
-17 -5 0
-18 -4 0
-18 -5 0
-19 -5 0
-21 -2 0
-21 -3 0
-21 -4 0
-21 -5 0
-22 -3 0
-22 -4 0
-22 -5 0
-23 -4 0
-23 -5 0
-24 -5 0
-21 -27 0
-21 -28 0
-21 -29 0
-21 -30 0
-22 -28 0
-22 -29 0
-22 -30 0
-23 -29 0
-23 -30 0
-24 -30 0
-26 -2 0
-26 -3 0
-26 -4 0
-26 -5 0
-27 -3 0
-27 -4 0
-27 -5 0
-28 -4 0
-28 -5 0
-29 -5 0
-26 -7 0
-26 -8 0
-26 -9 0
-26 -10 0
-27 -8 0
-27 -9 0
-27 -10 0
-28 -9 0
-28 -10 0
-29 -10 0
-26 -12 0
-26 -13 0
-26 -14 0
-26 -15 0
-27 -13 0
-27 -14 0
-27 -15 0
-28 -14 0
-28 -15 0
-29 -15 0
-26 -22 0
-26 -23 0
-26 -24 0
-26 -25 0
-27 -23 0
-27 -24 0
-27 -25 0
-28 -24 0
-28 -25 0
-29 -25 0
-31 -7 0
-31 -8 0
-31 -9 0
-31 -10 0
-32 -8 0
-32 -9 0
-32 -10 0
-33 -9 0
-33 -10 0
-34 -10 0
-31 -12 0
-31 -13 0
-31 -14 0
-31 -15 0
-32 -13 0
-32 -14 0
-32 -15 0
-33 -14 0
-33 -15 0
-34 -15 0
-31 -37 0
-31 -38 0
-31 -39 0
-31 -40 0
-32 -38 0
-32 -39 0
-32 -40 0
-33 -39 0
-33 -40 0
-34 -40 0
-31 -42 0
-31 -43 0
-31 -44 0
-31 -45 0
-32 -43 0
-32 -44 0
-32 -45 0
-33 -44 0
-33 -45 0
-34 -45 0
-36 -2 0
-36 -3 0
-36 -4 0
-36 -5 0
-37 -3 0
-37 -4 0
-37 -5 0
-38 -4 0
-38 -5 0
-39 -5 0
-36 -32 0
-36 -33 0
-36 -34 0
-36 -35 0
-37 -33 0
-37 -34 0
-37 -35 0
-38 -34 0
-38 -35 0
-39 -35 0
-41 -2 0
-41 -3 0
-41 -4 0
-41 -5 0
-42 -3 0
-42 -4 0
-42 -5 0
-43 -4 0
-43 -5 0
-44 -5 0
-41 -32 0
-41 -33 0
-41 -34 0
-41 -35 0
-42 -33 0
-42 -34 0
-42 -35 0
-43 -34 0
-43 -35 0
-44 -35 0
-1 -2 0
-6 -7 0
-11 -12 0
-16 -17 0
-21 -22 0
-26 -27 0
-31 -32 0
-36 -37 0
-41 -42 0
-1 -3 0
-6 -8 0
-11 -13 0
-16 -18 0
-21 -23 0
-26 -28 0
-31 -33 0
-36 -38 0
-41 -43 0
-1 -4 0
-6 -9 0
-11 -14 0
-16 -19 0
-21 -24 0
-26 -29 0
-31 -34 0
-36 -39 0
-41 -44 0
-1 -5 0
-6 -10 0
-11 -15 0
-16 -20 0
-21 -25 0
-26 -30 0
-31 -35 0
-36 -40 0
-41 -45 0
-2 -3 0
-7 -8 0
-12 -13 0
-17 -18 0
-22 -23 0
-27 -28 0
-32 -33 0
-37 -38 0
-42 -43 0
-2 -4 0
-7 -9 0
-12 -14 0
-17 -19 0
-22 -24 0
-27 -29 0
-32 -34 0
-37 -39 0
-42 -44 0
-2 -5 0
-7 -10 0
-12 -15 0
-17 -20 0
-22 -25 0
-27 -30 0
-32 -35 0
-37 -40 0
-42 -45 0
-3 -4 0
-8 -9 0
-13 -14 0
-18 -19 0
-23 -24 0
-28 -29 0
-33 -34 0
-38 -39 0
-43 -44 0
-3 -5 0
-8 -10 0
-13 -15 0
-18 -20 0
-23 -25 0
-28 -30 0
-33 -35 0
-38 -40 0
-43 -45 0
-4 -5 0
-9 -10 0
-14 -15 0
-19 -20 0
-24 -25 0
-29 -30 0
-34 -35 0
-39 -40 0
-44 -45 0
-1 -6 0
-1 -11 0
-1 -16 0
-1 -21 0
-1 -26 0
-1 -31 0
-1 -36 0
-1 -41 0
-6 -11 0
-6 -16 0
-6 -21 0
-6 -26 0
-6 -31 0
-6 -36 0
-6 -41 0
-11 -16 0
-11 -21 0
-11 -26 0
-11 -31 0
-11 -36 0
-11 -41 0
-16 -21 0
-16 -26 0
-16 -31 0
-16 -36 0
-16 -41 0
-21 -26 0
-21 -31 0
-21 -36 0
-21 -41 0
-26 -31 0
-26 -36 0
-26 -41 0
-31 -36 0
-31 -41 0
-36 -41 0
-2 -7 0
-2 -12 0
-2 -17 0
-2 -22 0
-2 -27 0
-2 -32 0
-2 -37 0
-2 -42 0
-7 -12 0
-7 -17 0
-7 -22 0
-7 -27 0
-7 -32 0
-7 -37 0
-7 -42 0
-12 -17 0
-12 -22 0
-12 -27 0
-12 -32 0
-12 -37 0
-12 -42 0
-17 -22 0
-17 -27 0
-17 -32 0
-17 -37 0
-17 -42 0
-22 -27 0
-22 -32 0
-22 -37 0
-22 -42 0
-27 -32 0
-27 -37 0
-27 -42 0
-32 -37 0
-32 -42 0
-37 -42 0
-3 -8 0
-3 -13 0
-3 -18 0
-3 -23 0
-3 -28 0
-3 -33 0
-3 -38 0
-3 -43 0
-8 -13 0
-8 -18 0
-8 -23 0
-8 -28 0
-8 -33 0
-8 -38 0
-8 -43 0
-13 -18 0
-13 -23 0
-13 -28 0
-13 -33 0
-13 -38 0
-13 -43 0
-18 -23 0
-18 -28 0
-18 -33 0
-18 -38 0
-18 -43 0
-23 -28 0
-23 -33 0
-23 -38 0
-23 -43 0
-28 -33 0
-28 -38 0
-28 -43 0
-33 -38 0
-33 -43 0
-38 -43 0
-4 -9 0
-4 -14 0
-4 -19 0
-4 -24 0
-4 -29 0
-4 -34 0
-4 -39 0
-4 -44 0
-9 -14 0
-9 -19 0
-9 -24 0
-9 -29 0
-9 -34 0
-9 -39 0
-9 -44 0
-14 -19 0
-14 -24 0
-14 -29 0
-14 -34 0
-14 -39 0
-14 -44 0
-19 -24 0
-19 -29 0
-19 -34 0
-19 -39 0
-19 -44 0
-24 -29 0
-24 -34 0
-24 -39 0
-24 -44 0
-29 -34 0
-29 -39 0
-29 -44 0
-34 -39 0
-34 -44 0
-39 -44 0
-5 -10 0
-5 -15 0
-5 -20 0
-5 -25 0
-5 -30 0
-5 -35 0
-5 -40 0
-5 -45 0
-10 -15 0
-10 -20 0
-10 -25 0
-10 -30 0
-10 -35 0
-10 -40 0
-10 -45 0
-15 -20 0
-15 -25 0
-15 -30 0
-15 -35 0
-15 -40 0
-15 -45 0
-20 -25 0
-20 -30 0
-20 -35 0
-20 -40 0
-20 -45 0
-25 -30 0
-25 -35 0
-25 -40 0
-25 -45 0
-30 -35 0
-30 -40 0
-30 -45 0
-35 -40 0
-35 -45 0
-40 -45 0
